Men = {A, B, C};
Women = {X, Y, Z};

rankMen = [|2, 1, 3,|
                    3, 2, 1,|
                    1, 3, 2,|];

rankWomen = [|2, 1, 3,|
                      3, 2, 1,|
                      1, 3, 2,|];